 $SYSTEM MWORDS=125 $END
 $GDDI NGROUP=1 $END
 $SCF CONV=1E-6 DIRSCF=.T. NPUNCH=0 DIIS=.F. SOSCF=.T. $END
 $CONTRL NPRINT=-5 ISPHER=1
         RUNTYP=ENERGY
 $END
 $BASIS GBASIS=N31 NGAUSS=6 NDFUNC=1 $END
 $FMOPRP NPRINT=9 NGUESS=2 IPIEDA=1 $END
 $PCM SOLVNT=WATER IFMO=1 ICOMP=0 $END
 $FMO
      NFRAG=27
      NBODY=2
      RESDIM=2.0
      RCORSD=2.0
      NLAYER=1
      MPLEVL(1)=2
      ICHARG(1)=  0,  0,  0,  0,  1,  0,  0,  0,  0,  0,
                  -1,  1,  0,  0,  0,  0,  0,  0,  0,  0,
                   0,  0,  0,  0, -1,  0,  0
      FRGNAM(1)= ALA001,  ALA002,  LEU003,  GLY004,  GLY005,
                  LYS006,  LEU007,  LEU008,  TRP009,  TRP010,
                  PRO011,  ACE012,  ARG013,  PHE014,  PEX015,
                  THR016,  GLY017,  HIE018,  PHE019,  GLY020,
                  NMG021,  MLE022,  TYR023,  GLN024,  GLU025,
                  PHE026,  ALA027
      INDAT(1)=0
                1     -8     11      0
                9     10     12    -28      0
               29    -35      0
               36    -42      0
               43    -64      0
               65    -74      0
               98   -114    117      0
              115    116    118   -132      0
              172   -193    196      0
              194    195    197   -208      0
              209   -226      0
              258   -285      0
              286   -305      0
              306   -313    316   -323    440   -468      0
              314    315    324   -335      0
              336   -342      0
              343   -359      0
              360   -379      0
              380   -386      0
              387   -396      0
              397   -418      0
              419   -439      0
               75    -97      0
              239   -257      0
              133   -149      0
              150   -171      0
              227   -238      0



 $END
 $FMOBND
        -3         9 6-31G(d)
       -14        29 6-31G(d)
       -33        36 6-31G(d)
       -40        43 6-31G(d)
       -47        65 6-31G(d)
      -100       115 6-31G(d)
      -174       194 6-31G(d)
      -207       209 6-31G(d)
      -266       286 6-31G(d)
      -290       306 6-31G(d)
      -312       314 6-31G(d)
      -326       336 6-31G(d)
      -340       343 6-31G(d)
      -347       360 6-31G(d)
      -364       380 6-31G(d)
      -384       387 6-31G(d)
      -394       397 6-31G(d)
      -404       419 6-31G(d)
      -423       440 6-31G(d)
 $END
 $DATA

c1
H-1 1
C-1 6
N-1 7
O-1 8
S-1 16
 $END
 $FMOHYB
6-31G(d) 15 5
0 1   0.995621   0.028507   0.000000   0.000000   0.000000
     -0.013353   0.000000   0.000000  -0.000001  -0.002076
     -0.002076  -0.002076   0.000000   0.000000   0.000000
0 1   0.097077  -0.179454   0.178051   0.308393   0.125888
     -0.181305   0.093381   0.161741   0.066029   0.000102
     -0.020671   0.005300  -0.020773  -0.008476  -0.014681
0 1   0.097077  -0.179454  -0.356101  -0.000000   0.125888
     -0.181304  -0.186762  -0.000000   0.066030  -0.031058
      0.010489   0.005300   0.000000   0.016952   0.000000
0 1   0.097077  -0.179454   0.178051  -0.308393   0.125888
     -0.181304   0.093381  -0.161741   0.066029   0.000102
     -0.020672   0.005300   0.020773  -0.008476   0.014681
1 0  -0.097061   0.179413   0.000000   0.000000   0.377708
      0.181288   0.000000   0.000000   0.198114  -0.010489
     -0.010489   0.036248  -0.000000  -0.000000  -0.000000
 $END
 $FMOXYZ
      1      N        11.100000    68.295000    43.332000
      2      H        11.244000    67.307000    43.505000
      3      C        11.322000    69.240000    44.425000
      4      H        10.734000    70.142000    44.243000
      5      C        10.864000    68.638000    45.754000
      6      H        11.657000    68.003000    46.155000
      7      H         9.988000    68.019000    45.626000
      8      H        10.658000    69.431000    46.474000
      9      C        12.782000    69.691000    44.505000
     10      O        13.135000    70.523000    45.341000
     11      H        10.872000    68.593000    42.416000
     12      N        13.619000    69.144000    43.626000
     13      H        13.272000    68.514000    42.917000
     14      C        15.048000    69.464000    43.595000
     15      H        15.337000    69.938000    44.534000
     16      C        15.879000    68.186000    43.422000
     17      H        16.779000    68.444000    42.862000
     18      H        15.324000    67.504000    42.780000
     19      C        16.365000    67.419000    44.662000
     20      H        17.291000    67.889000    44.997000
     21      C        15.386000    67.476000    45.822000
     22      H        15.262000    68.502000    46.175000
     23      H        14.416000    67.074000    45.519000
     24      H        15.774000    66.885000    46.655000
     25      C        16.677000    65.976000    44.302000
     26      H        17.238000    65.508000    45.111000
     27      H        15.752000    65.421000    44.139000
     28      H        17.267000    65.943000    43.397000
     29      C        15.369000    70.469000    42.494000
     30      O        14.835000    70.382000    41.389000
     31      N        16.248000    71.418000    42.802000
     32      H        16.617000    71.451000    43.740000
     33      C        16.537000    72.523000    41.892000
     34      H        15.930000    72.460000    40.988000
     35      H        16.295000    73.454000    42.403000
     36      C        17.983000    72.648000    41.456000
     37      O        18.361000    73.644000    40.832000
     38      N        18.789000    71.637000    41.771000
     39      H        18.394000    70.819000    42.209000
     40      C        20.201000    71.639000    41.418000
     41      H        20.600000    72.645000    41.553000
     42      H        20.762000    70.966000    42.059000
     43      C        20.451000    71.255000    39.975000
     44      O        19.509000    71.046000    39.205000
     45      N        21.728000    71.167000    39.610000
     46      H        22.441000    71.393000    40.285000
     47      C        22.123000    70.783000    38.260000
     48      H        21.557000    71.373000    37.536000
     49      C        23.620000    71.027000    38.043000
     50      H        24.144000    70.491000    38.838000
     51      H        23.868000    70.516000    37.109000
     52      C        24.201000    72.447000    37.944000
     53      H        23.968000    73.028000    38.837000
     54      H        23.820000    72.946000    37.053000
     55      C        25.716000    72.209000    37.837000
     56      H        25.907000    71.408000    37.118000
     57      H        26.049000    71.828000    38.806000
     58      C        26.675000    73.348000    37.481000
     59      H        27.708000    73.011000    37.618000
     60      H        26.494000    74.180000    38.168000
     61      N        26.457000    73.773000    36.092000
     62      H        27.226000    73.474000    35.503000
     63      H        26.380000    74.781000    36.030000
     64      H        25.602000    73.364000    35.736000
     65      C        21.772000    69.323000    37.980000
     66      O        21.382000    68.978000    36.865000
     67      N        21.896000    68.475000    39.001000
     68      H        22.208000    68.831000    39.889000
     69      C        21.661000    67.040000    38.855000
     70      H        20.741000    66.872000    38.293000
     71      H        21.587000    66.570000    39.836000
     72      C        22.810000    66.406000    38.094000
     73      O        23.822000    67.071000    37.850000
     74      H        22.704000    65.364000    37.791000
     75      N        20.513000    62.998000    39.881000
     76      H        19.870000    62.640000    39.185000
     77      C        20.307000    62.589000    41.270000
     78      H        21.178000    62.858000    41.857000
     79      C        19.106000    63.329000    41.868000
     80      H        18.241000    63.188000    41.218000
     81      H        18.858000    62.877000    42.830000
     82      C        19.316000    64.802000    42.113000
     83      C        18.741000    65.755000    41.274000
     84      H        18.138000    65.437000    40.437000
     85      C        18.920000    67.113000    41.504000
     86      H        18.468000    67.847000    40.851000
     87      C        19.683000    67.528000    42.583000
     88      O        19.865000    68.870000    42.820000
     89      H        20.341000    69.024000    43.643000
     90      C        20.263000    66.602000    43.434000
     91      H        20.842000    66.931000    44.287000
     92      C        20.074000    65.247000    43.199000
     93      H        20.512000    64.526000    43.874000
     94      C        20.077000    61.089000    41.437000
     95      O        19.586000    60.418000    40.527000
     96      H        21.290000    63.545000    39.604000
     97      H        20.360000    60.670000    42.403000
     98      N        20.536000    60.496000    49.450000
     99      H        21.137000    60.786000    50.220000
    100      C        20.616000    61.250000    48.208000
    101      H        19.979000    60.776000    47.471000
    102      C        20.141000    62.686000    48.422000
    103      H        20.939000    63.232000    48.931000
    104      H        19.288000    62.659000    49.098000
    105      C        19.703000    63.472000    47.182000
    106      H        20.515000    63.425000    46.454000
    107      C        18.453000    62.874000    46.549000
    108      H        18.409000    61.791000    46.652000
    109      H        18.442000    63.108000    45.481000
    110      H        17.549000    63.279000    47.011000
    111      C        19.463000    64.920000    47.549000
    112      H        20.126000    65.556000    46.960000
    113      H        19.674000    65.091000    48.605000
    114      H        18.437000    65.234000    47.355000
    115      C        22.048000    61.216000    47.676000
    116      O        22.995000    61.508000    48.414000
    117      H        20.067000    59.626000    49.504000
    118      N        22.193000    60.847000    46.401000
    119      H        21.361000    60.607000    45.878000
    120      C        23.502000    60.624000    45.763000
    121      H        23.334000    60.015000    44.875000
    122      C        24.142000    61.947000    45.309000
    123      H        24.260000    62.601000    46.175000
    124      H        25.130000    61.759000    44.888000
    125      C        23.343000    62.659000    44.223000
    126      O        22.708000    62.028000    43.377000
    127      N        23.387000    63.988000    44.239000
    128      H        22.902000    64.476000    43.509000
    129      H        23.939000    64.446000    44.948000
    130      C        24.487000    59.834000    46.638000
    131      O        25.648000    60.220000    46.780000
    132      H        24.096000    58.941000    47.125000
    133      N        24.589000    59.480000    49.840000
    134      H        24.051000    60.037000    49.186000
    135      C        24.796000    60.040000    51.174000
    136      H        25.499000    59.431000    51.742000
    137      C        25.387000    61.448000    51.082000
    138      H        24.656000    62.112000    50.618000
    139      H        25.577000    61.782000    52.102000
    140      C        26.682000    61.542000    50.293000
    141      H        27.439000    60.928000    50.782000
    142      H        26.525000    61.150000    49.288000
    143      C        27.211000    62.964000    50.169000
    144      O        27.133000    63.734000    51.152000
    145      O        27.726000    63.306000    49.085000
    146      C        23.471000    60.078000    51.921000
    147      O        22.504000    60.667000    51.436000
    148      H        25.022000    58.638000    49.551000
    149      H        23.437000    59.556000    52.877000
    150      N        20.468000    61.065000    54.137000
    151      H        19.863000    60.325000    53.811000
    152      C        19.954000    62.431000    54.267000
    153      H        20.605000    62.967000    54.961000
    154      C        20.053000    63.160000    52.912000
    155      H        20.159000    64.222000    53.134000
    156      H        20.957000    62.846000    52.386000
    157      C        18.854000    62.978000    52.008000
    158      C        18.341000    61.712000    51.725000
    159      H        18.813000    60.842000    52.137000
    160      C        17.240000    61.555000    50.899000
    161      H        16.882000    60.572000    50.652000
    162      C        16.653000    62.664000    50.319000
    163      H        15.804000    62.545000    49.663000
    164      C        17.161000    63.932000    50.578000
    165      H        16.717000    64.806000    50.129000
    166      C        18.259000    64.082000    51.414000
    167      H        18.664000    65.069000    51.582000
    168      C        18.544000    62.547000    54.868000
    169      O        18.174000    63.597000    55.392000
    170      H        21.429000    60.863000    54.263000
    171      H        17.907000    61.665000    54.802000
    172      N        19.493000    68.821000    55.344000
    173      H        19.653000    67.837000    55.499000
    174      C        19.837000    69.409000    54.049000
    175      H        20.591000    70.167000    54.241000
    176      C        20.433000    68.358000    53.102000
    177      H        19.736000    67.524000    53.012000
    178      H        20.560000    68.803000    52.114000
    179      C        21.777000    67.819000    53.519000
    180      C        22.611000    68.330000    54.474000
    181      H        22.381000    69.167000    55.122000
    182      N        23.754000    67.574000    54.564000
    183      H        24.452000    67.689000    55.283000
    184      C        23.687000    66.558000    53.648000
    185      C        24.604000    65.541000    53.361000
    186      H        25.545000    65.462000    53.883000
    187      C        24.270000    64.647000    52.377000
    188      H        24.962000    63.865000    52.134000
    189      C        23.054000    64.747000    51.676000
    190      H        22.837000    64.024000    50.901000
    191      C        22.141000    65.760000    51.959000
    192      H        21.216000    65.837000    51.410000
    193      C        22.455000    66.685000    52.964000
    194      C        18.609000    70.054000    53.402000
    195      O        17.492000    69.555000    53.566000
    196      H        19.202000    69.380000    56.108000
    197      N        18.805000    71.172000    52.676000
    198      C        20.078000    71.889000    52.480000
    199      H        20.624000    72.039000    53.412000
    200      H        20.689000    71.364000    51.743000
    201      C        19.641000    73.216000    51.937000
    202      H        19.415000    73.888000    52.767000
    203      H        20.408000    73.657000    51.300000
    204      C        18.394000    72.938000    51.175000
    205      H        17.771000    73.829000    51.085000
    206      H        18.658000    72.567000    50.183000
    207      C        17.692000    71.844000    51.988000
    208      H        17.037000    72.300000    52.731000
    209      C        16.872000    70.921000    51.072000
    210      O        15.650000    71.074000    50.992000
    211      N        17.536000    69.978000    50.402000
    212      H        18.531000    70.131000    50.218000
    213      C        16.846000    68.990000    49.562000
    214      H        16.118000    69.527000    48.953000
    215      C        17.796000    68.284000    48.577000
    216      H        17.426000    67.272000    48.406000
    217      H        17.747000    68.803000    47.618000
    218      C        19.262000    68.188000    48.992000
    219      H        19.682000    67.295000    48.547000
    220      H        19.357000    68.087000    50.074000
    221      C        20.095000    69.359000    48.502000
    222      O        21.021000    69.147000    47.692000
    223      O        19.820000    70.496000    48.927000
    224      C        16.046000    67.971000    50.374000
    225      O        15.025000    67.462000    49.901000
    226      H        16.421000    67.736000    51.370000
    227      N        12.898000    69.860000    51.332000
    228      H        13.901000    70.000000    51.271000
    229      C        12.107000    69.976000    50.108000
    230      H        11.354000    70.753000    50.251000
    231      C        12.992000    70.374000    48.935000
    232      H        13.730000    69.600000    48.720000
    233      H        12.384000    70.533000    48.043000
    234      H        13.515000    71.304000    49.165000
    235      C        11.354000    68.679000    49.804000
    236      O        10.130000    68.697000    49.647000
    237      H        12.493000    69.679000    52.217000
    238      H        11.952000    67.769000    49.754000
    239      N         8.668000    67.917000    52.425000
    240      H         9.586000    68.328000    52.280000
    241      C         7.490000    68.767000    52.250000
    242      H         6.902000    68.731000    53.168000
    243      C         7.909000    70.222000    51.992000
    244      H         8.627000    70.509000    52.761000
    245      H         8.414000    70.276000    51.026000
    246      C         6.759000    71.230000    51.986000
    247      H         6.331000    71.252000    52.989000
    248      H         5.973000    70.911000    51.300000
    249      C         7.203000    72.639000    51.604000
    250      O         6.655000    73.244000    50.681000
    251      N         8.201000    73.164000    52.313000
    252      H         8.645000    72.631000    53.037000
    253      H         8.479000    74.090000    52.040000
    254      C         6.583000    68.255000    51.126000
    255      O         5.359000    68.193000    51.287000
    256      H         8.608000    66.968000    52.699000
    257      H         7.079000    67.949000    50.204000
    258      H        13.381000    86.508000    49.105000
    259      C        13.171000    85.883000    49.973000
    260      H        12.583000    85.019000    49.665000
    261      H        12.611000    86.460000    50.709000
    262      C        14.462000    85.418000    50.580000
    263      O        15.559000    85.635000    50.059000
    264      N        14.306000    84.647000    51.649000
    265      H        13.391000    84.617000    52.076000
    266      C        15.360000    83.841000    52.251000
    267      H        16.271000    84.437000    52.305000
    268      C        14.947000    83.440000    53.670000
    269      H        14.254000    84.193000    54.045000
    270      H        14.425000    82.484000    53.621000
    271      C        16.089000    83.315000    54.666000
    272      H        15.940000    82.417000    55.266000
    273      H        17.030000    83.230000    54.122000
    274      C        16.154000    84.522000    55.590000
    275      H        16.273000    85.423000    54.988000
    276      H        15.225000    84.590000    56.156000
    277      N        17.277000    84.420000    56.522000
    278      H        17.774000    83.542000    56.560000
    279      C        17.693000    85.398000    57.324000
    280      N        17.085000    86.581000    57.327000
    281      H        16.297000    86.745000    56.717000
    282      H        17.412000    87.315000    57.939000
    283      N        18.730000    85.191000    58.126000
    284      H        19.197000    84.295000    58.127000
    285      H        19.052000    85.929000    58.736000
    286      C        15.636000    82.592000    51.409000
    287      O        14.749000    81.756000    51.212000
    288      N        16.867000    82.475000    50.914000
    289      H        17.540000    83.203000    51.108000
    290      C        17.281000    81.330000    50.099000
    291      H        16.510000    80.565000    50.186000
    292      C        17.384000    81.723000    48.622000
    293      H        17.916000    82.672000    48.555000
    294      H        17.960000    80.961000    48.096000
    295      C        16.055000    81.877000    47.942000
    296      C        15.441000    80.785000    47.335000
    297      H        15.928000    79.821000    47.353000
    298      C        14.207000    80.920000    46.705000
    299      H        13.742000    80.065000    46.238000
    300      C        13.573000    82.160000    46.678000
    301      H        12.616000    82.268000    46.190000
    302      C        14.177000    83.259000    47.282000
    303      H        13.689000    84.222000    47.264000
    304      C        15.413000    83.113000    47.910000
    305      H        15.878000    83.968000    48.377000
    306      C        18.599000    80.718000    50.569000
    307      O        19.567000    81.431000    50.841000
    308      C        20.088000    79.135000    53.333000
    309      C        19.888000    78.088000    52.242000
    310      C        20.760000    76.889000    52.625000
    311      S        18.177000    77.617000    52.392000
    312      C        20.188000    78.634000    50.838000
    313      N        19.084000    79.502000    50.327000
    314      C        20.363000    77.551000    49.799000
    315      O        19.391000    76.897000    49.460000
    316      H        21.154000    79.314000    53.475000
    317      H        19.653000    78.775000    54.265000
    318      H        19.600000    80.064000    53.039000
    319      H        20.653000    76.107000    51.873000
    320      H        20.444000    76.506000    53.595000
    321      H        21.803000    77.201000    52.679000
    322      H        21.103000    79.225000    50.882000
    323      H        18.562000    79.038000    49.597000
    324      N        21.576000    77.615000    49.249000
    325      H        22.076000    78.476000    49.419000
    326      C        22.296000    76.635000    48.439000
    327      H        21.828000    76.605000    47.455000
    328      C        23.785000    77.021000    48.248000
    329      H        24.277000    77.038000    49.220000
    330      C        24.502000    76.027000    47.342000
    331      H        25.544000    76.325000    47.228000
    332      H        24.019000    76.013000    46.365000
    333      H        24.455000    75.032000    47.785000
    334      O        23.869000    78.323000    47.657000
    335      H        23.421000    78.959000    48.219000
    336      C        22.180000    75.245000    49.057000
    337      O        22.429000    75.061000    50.247000
    338      N        21.789000    74.275000    48.236000
    339      H        21.581000    74.504000    47.275000
    340      C        21.651000    72.892000    48.677000
    341      H        21.034000    72.358000    47.954000
    342      H        21.150000    72.879000    49.645000
    343      C        22.979000    72.172000    48.803000
    344      O        24.021000    72.696000    48.395000
    345      N        22.937000    70.967000    49.371000
    346      H        22.050000    70.613000    49.701000
    347      C        24.133000    70.139000    49.533000
    348      H        24.891000    70.736000    50.040000
    349      C        23.834000    68.913000    50.403000
    350      H        23.481000    69.259000    51.375000
    351      H        23.043000    68.332000    49.929000
    352      C        25.020000    68.024000    50.620000
    353      N        26.054000    68.354000    51.470000
    354      C        26.961000    67.393000    51.452000
    355      H        27.879000    67.379000    52.021000
    356      N        26.553000    66.452000    50.620000
    357      H        27.049000    65.597000    50.412000
    358      C        25.344000    66.824000    50.083000
    359      H        24.761000    66.264000    49.367000
    360      C        24.695000    69.713000    48.179000
    361      O        25.894000    69.452000    48.048000
    362      N        23.822000    69.651000    47.177000
    363      H        22.847000    69.840000    47.361000
    364      C        24.237000    69.317000    45.820000
    365      H        25.311000    69.130000    45.839000
    366      C        23.550000    68.034000    45.350000
    367      H        22.472000    68.189000    45.384000
    368      H        23.844000    67.837000    44.319000
    369      C        23.881000    66.830000    46.184000
    370      C        25.167000    66.286000    46.171000
    371      H        25.932000    66.739000    45.557000
    372      C        25.475000    65.170000    46.937000
    373      H        26.474000    64.761000    46.922000
    374      C        24.488000    64.579000    47.726000
    375      H        24.721000    63.709000    48.322000
    376      C        23.201000    65.112000    47.744000
    377      H        22.435000    64.657000    48.354000
    378      C        22.905000    66.231000    46.975000
    379      H        21.906000    66.641000    46.991000
    380      C        23.983000    70.465000    44.845000
    381      O        23.794000    70.245000    43.645000
    382      N        23.993000    71.688000    45.372000
    383      H        24.158000    71.792000    46.363000
    384      C        23.773000    72.880000    44.564000
    385      H        24.224000    72.721000    43.585000
    386      H        24.265000    73.726000    45.044000
    387      C        22.303000    73.216000    44.368000
    388      O        21.424000    72.475000    44.825000
    389      N        22.034000    74.336000    43.693000
    390      C        23.068000    75.171000    43.102000
    391      H        22.605000    76.007000    42.578000
    392      H        23.653000    74.580000    42.398000
    393      H        23.721000    75.551000    43.888000
    394      C        20.656000    74.789000    43.517000
    395      H        20.581000    75.331000    42.574000
    396      H        19.998000    73.921000    43.482000
    397      C        20.212000    75.702000    44.644000
    398      O        20.817000    75.682000    45.720000
    399      N        19.172000    76.506000    44.409000
    400      C        18.525000    76.562000    43.101000
    401      H        17.724000    77.301000    43.123000
    402      H        18.110000    75.584000    42.859000
    403      H        19.258000    76.843000    42.345000
    404      C        18.657000    77.370000    45.487000
    405      C        18.605000    78.857000    45.109000
    406      C        19.979000    79.476000    44.846000
    407      C        19.842000    80.746000    44.011000
    408      H        20.829000    81.173000    43.834000
    409      H        19.374000    80.504000    43.057000
    410      H        19.225000    81.468000    44.546000
    411      C        20.745000    79.757000    46.138000
    412      H        20.831000    78.838000    46.717000
    413      H        20.210000    80.506000    46.722000
    414      H        21.741000    80.128000    45.896000
    415      H        20.560000    78.759000    44.266000
    416      H        18.003000    78.961000    44.206000
    417      H        18.122000    79.407000    45.917000
    418      H        19.369000    77.289000    46.309000
    419      C        17.325000    76.930000    46.038000
    420      O        16.384000    76.687000    45.281000
    421      N        17.243000    76.826000    47.361000
    422      H        18.037000    77.101000    47.922000
    423      C        16.044000    76.328000    48.032000
    424      H        15.265000    76.179000    47.284000
    425      C        16.330000    74.982000    48.714000
    426      H        17.069000    75.148000    49.498000
    427      H        15.410000    74.623000    49.174000
    428      C        16.858000    73.906000    47.787000
    429      C        16.029000    72.884000    47.330000
    430      H        14.995000    72.858000    47.641000
    431      C        16.515000    71.892000    46.475000
    432      H        15.860000    71.107000    46.127000
    433      C        17.841000    71.920000    46.076000
    434      O        18.336000    70.945000    45.238000
    435      H        18.664000    71.352000    44.433000
    436      C        18.682000    72.925000    46.518000
    437      H        19.714000    72.947000    46.201000
    438      C        18.193000    73.906000    47.371000
    439      H        18.856000    74.684000    47.720000
    440      C        15.547000    77.347000    49.056000
    441      O        16.353000    78.069000    49.645000
    442      N        14.220000    77.413000    49.271000
    443      C        13.165000    76.579000    48.661000
    444      H        13.127000    76.728000    47.582000
    445      H        13.331000    75.527000    48.893000
    446      C        11.901000    77.068000    49.315000
    447      H        11.628000    76.411000    50.141000
    448      H        11.093000    77.101000    48.584000
    449      C        12.181000    78.436000    49.821000
    450      H        11.572000    78.655000    50.698000
    451      H        11.996000    79.173000    49.039000
    452      C        13.667000    78.412000    50.187000
    453      H        14.114000    79.386000    49.988000
    454      C        13.852000    78.045000    51.658000
    455      O        13.645000    76.890000    52.041000
    456      N        14.180000    79.030000    52.566000
    457      H        14.317000    79.945000    52.131000