 $SYSTEM MWORDS=125 $END
 $GDDI NGROUP=1 $END
 $SCF CONV=1E-7 DIRSCF=.T. NPUNCH=0 DIIS=.F. SOSCF=.T. $END
 $CONTRL NPRINT=-5 ISPHER=1
         RUNTYP=ENERGY
 $END
 $BASIS GBASIS=N31 NGAUSS=6 NDFUNC=1 $END
 $FMOPRP NPRINT=9 NGUESS=2 PRTDST(1)=100.0,0.5,0.6,0.0 IPIEDA=2 $END
 $FMO
      NFRAG=276
      NBODY=2
      RESDIM=2.0
      RCORSD=2.0
      NLAYER=1
      MPLEVL(1)=2
      ICHARG(1)=  0,  0,  0,  0,  1,  0, -1,  1,  0,  0,
                  -1,  0,  0,  0,  0,  0,  0,  0,  1,  0,
                   1,  0,  1,  0,  0,  0, -1,  0,  0,  0,
                   0,  1,  1,  0,  0,  1,  0,  0,  1, -1,
                   0,  0,  0,  0,  1, -1,  0,  0,  0,  0,
                   0,  0,  0,  1,  0,  0, -1,  0,  0,  0,
                   0, -1,  0,  1,  0,  0,  0,  0,  0, -1,
                   0,  0,  0,  0, -1,  0,  1,  1,  0,  0,
                  -1,  0,  0,  0,  0,  0,  0,  0,  0,  0,
                   0,  0,  0,  1,  0,  0,  0,  0,  0,  0,
                   0,  0,  0,  0,  0,  0,  0,  0,  0,  0,
                   1,  0,  0,  0,  1, -1,  0,  1,  0,  0,
                   0,  0,  0,  0,  0,  0, -1,  0,  0,  0,
                   1,  0,  0, -1,  0,  0,  0,  0,  1,  0,
                  -1,  1,  0,  0,  0,  1,  0,  0, -1,  0,
                   0,  0,  0,  0,  1,  0,  0,  0,  0,  0,
                   0, -1,  0,  0,  0,  0,  0,  0,  0,  0,
                   0, -1,  0,  0,  0,  1,  1,  0,  0,  0,
                   0,  0, -1,  0, -1,  0, -1,  0,  0,  0,
                   1,  0,  0,  1,  0,  0,  0,  0,  0, -1,
                  -1,  0,  0,  0,  0,  0,  0,  0,  0,  0,
                   0, -1,  0,  1,  0,  0,  0,  0,  1,  0,
                   0,  1,  0, -1,  0,  0,  1,  0,  0,  0,
                   0,  0, -1, -1, -1,  0,  1,  0,  0,  0,
                   0,  0,  0,  0,  0,  0, -1,  0,  0,  1,
                   1,  0,  0,  0,  1,  0,  0,  0,  0,  0,
                   0,  0,  0,  0, -1,  0,  0,  1,  0,  0,
                   0,  0,  0,  1, -1,  0
      FRGNAM(1)= MET001,  GLU002,  ASN003,  PHE004,  GLN005,
                  LYS006,  VAL007,  GLU008,  LYS009,  ILE010,
                  GLY011,  GLU012,  GLY013,  THR014,  TYR015,
                  GLY016,  VAL017,  VAL018,  TYR019,  LYS020,
                  ALA021,  ARG022,  ASN023,  LYS024,  LEU025,
                  THR026,  GLY027,  GLU028,  VAL029,  VAL030,
                  ALA031,  LEU032,  LYS033,  LYS034,  ILE035,
                  SER036,  THR037,  ALA038,  ILE039,  ARG040,
                  GLU041,  ILE042,  SER043,  LEU044,  LEU045,
                  LYS046,  GLU047,  LEU048,  ASN049,  HIE050,
                  PRO051,  ASN052,  ILE053,  VAL054,  LYS055,
                  LEU056,  LEU057,  ASP058,  VAL059,  ILE060,
                  HIE061,  THR062,  GLU063,  ASN064,  LYS065,
                  LEU066,  TYR067,  LEU068,  VAL069,  PHE070,
                  GLU071,  PHE072,  LEU073,  HIE074,  GLN075,
                  ASP076,  LEU077,  LYS078,  LYS079,  PHE080,
                  MET081,  ASP082,  ALA083,  SER084,  ALA085,
                  LEU086,  THR087,  GLY088,  ILE089,  PRO090,
                  LEU091,  PRO092,  LEU093,  ILE094,  LYS095,
                  SER096,  TYR097,  LEU098,  PHE099,  GLN100,
                  LEU101,  LEU102,  GLN103,  GLY104,  LEU105,
                  ALA106,  PHE107,  CYS108,  HIE109,  SER110,
                  HIE111,  ARG112,  VAL113,  LEU114,  HIE115,
                  ARG116,  ASP117,  LEU118,  LYS119,  PRO120,
                  GLN121,  ASN122,  LEU123,  LEU124,  ILE125,
                  ASN126,  THR127,  GLU128,  GLY129,  ALA130,
                  ILE131,  LYS132,  LEU133,  ALA134,  ASP135,
                  PHE136,  GLY137,  LEU138,  ALA139,  ARG140,
                  ALA141,  VAL142,  THR143,  LEU144,  TRP145,
                  TYR146,  ARG147,  ALA148,  PRO149,  GLU150,
                  ILE151,  LEU152,  LEU153,  GLY154,  CYS155,
                  LYS156,  TYR157,  TYR158,  SER159,  THR160,
                  ALA161,  VAL162,  ASP163,  ILE164,  TRP165,
                  SER166,  LEU167,  GLY168,  CYS169,  ILE170,
                  PHE171,  ALA172,  GLU173,  MET174,  VAL175,
                  THR176,  ARG177,  ARG178,  ALA179,  LEU180,
                  PHE181,  PRO182,  GLY183,  ASP184,  SER185,
                  GLU186,  ILE187,  ASP188,  GLN189,  LEU190,
                  PHE191,  ARG192,  ILE193,  PHE194,  ARG195,
                  THR196,  LEU197,  GLY198,  THR199,  PRO200,
                  ASP201,  GLU202,  VAL203,  VAL204,  TRP205,
                  PRO206,  GLY207,  VAL208,  THR209,  SER210,
                  MET211,  PRO212,  ASP213,  TYR214,  LYS215,
                  PRO216,  SER217,  PHE218,  PRO219,  LYS220,
                  TRP221,  ALA222,  ARG223,  GLN224,  ASP225,
                  PHE226,  SER227,  LYS228,  VAL229,  VAL230,
                  PRO231,  PRO232,  LEU233,  ASP234,  GLU235,
                  ASP236,  GLY237,  ARG238,  SER239,  LEU240,
                  LEU241,  SER242,  GLN243,  MET244,  LEU245,
                  HIE246,  TYR247,  ASP248,  PRO249,  ASN250,
                  LYS251,  ARG252,  ILE253,  SER254,  ALA255,
                  LYS256,  ALA257,  ALA258,  LEU259,  ALA260,
                  HIE261,  PRO262,  PHE263,  PHE264,  GLN265,
                  ASP266,  VAL267,  THR268,  LYS269,  PRO270,
                  VAL271,  PRO272,  HIE273,  LEU274,  ARG275,
                  LZ1276
      INDAT(1)=0
                1    -32      0
               33    -46      0
               47    -66      0
               67    -83      0
               84   -105      0
              106   -121      0
              122   -136      0
              137   -158      0
              159   -177      0
              178   -184      0
              185   -199      0
              200   -206      0
              207   -220      0
              221   -241      0
              242   -248      0
              249   -264      0
              265   -280      0
              281   -301      0
              302   -323      0
              324   -333      0
              334   -357      0
              358   -371      0
              372   -393      0
              394   -412      0
              413   -426      0
              427   -433      0
              434   -448      0
              449   -464      0
              465   -480      0
              481   -490      0
              491   -509      0
              510   -531      0
              532   -553      0
              554   -572      0
              573   -599      0
              600   -624      0
              625   -634      0
              635   -653      0
              654   -677      0
              678   -692      0
              693   -711      0
              712   -722      0
              723   -741      0
              742   -760      0
              761   -782      0
              783   -797      0
              798   -816      0
              817   -830      0
              831   -847      0
              848   -861      0
              862   -875      0
              876   -894      0
              895   -910      0
              911   -932      0
              933   -951      0
              952   -970      0
              971   -982      0
              983   -998      0
              999  -1017      0
             1018  -1034      0
             1035  -1048      0
             1049  -1063      0
             1064  -1077      0
             1078  -1099      0
             1100  -1118      0
             1119  -1139      0
             1140  -1158      0
             1159  -1174      0
             1175  -1194      0
             1195  -1209      0
             1210  -1229      0
             1230  -1248      0
             1249  -1265      0
             1266  -1282      0
             1283  -1294      0
             1295  -1313      0
             1314  -1335      0
             1336  -1357      0
             1358  -1377      0
             1378  -1394      0
             1395  -1406      0
             1407  -1416      0
             1417  -1427      0
             1428  -1437      0
             1438  -1456      0
             1457  -1470      0
             1471  -1477      0
             1478  -1496      0
             1497  -1510      0
             1511  -1529      0
             1530  -1543      0
             1544  -1562      0
             1563  -1581      0
             1582  -1603      0
             1604  -1614      0
             1615  -1635      0
             1636  -1654      0
             1655  -1674      0
             1675  -1691      0
             1692  -1710      0
             1711  -1729      0
             1730  -1746      0
             1747  -1753      0
             1754  -1772      0
             1773  -1782      0
             1783  -1802      0
             1803  -1813      0
             1814  -1830      0
             1831  -1841      0
             1842  -1858      0
             1859  -1882      0
             1883  -1898      0
             1899  -1917      0
             1918  -1934      0
             1935  -1958      0
             1959  -1970      0
             1971  -1989      0
             1990  -2011      0
             2012  -2025      0
             2026  -2042      0
             2043  -2056      0
             2057  -2075      0
             2076  -2094      0
             2095  -2113      0
             2114  -2127      0
             2128  -2141      0
             2142  -2156      0
             2157  -2163      0
             2164  -2173      0
             2174  -2192      0
             2193  -2214      0
             2215  -2233      0
             2234  -2243      0
             2244  -2255      0
             2256  -2275      0
             2276  -2282      0
             2283  -2301      0
             2302  -2311      0
             2312  -2335      0
             2336  -2345      0
             2346  -2368      0
             2369  -2398      0
             2399  -2417      0
             2418  -2441      0
             2442  -2462      0
             2463  -2486      0
             2487  -2496      0
             2497  -2510      0
             2511  -2525      0
             2526  -2544      0
             2545  -2563      0
             2564  -2582      0
             2583  -2589      0
             2590  -2600      0
             2601  -2622      0
             2623  -2643      0
             2644  -2664      0
             2665  -2675      0
             2676  -2689      0
             2690  -2699      0
             2700  -2715      0
             2716  -2727      0
             2728  -2746      0
             2747  -2770      0
             2771  -2781      0
             2782  -2800      0
             2801  -2807      0
             2808  -2818      0
             2819  -2837      0
             2838  -2857      0
             2858  -2867      0
             2868  -2882      0
             2883  -2899      0
             2900  -2915      0
             2916  -2929      0
             2930  -2953      0
             2954  -2977      0
             2978  -2987      0
             2988  -3006      0
             3007  -3026      0
             3027  -3040      0
             3041  -3047      0
             3048  -3059      0
             3060  -3070      0
             3071  -3085      0
             3086  -3104      0
             3105  -3116      0
             3117  -3133      0
             3134  -3152      0
             3153  -3172      0
             3173  -3196      0
             3197  -3215      0
             3216  -3235      0
             3236  -3259      0
             3260  -3273      0
             3274  -3292      0
             3293  -3299      0
             3300  -3313      0
             3314  -3327      0
             3328  -3339      0
             3340  -3354      0
             3355  -3370      0
             3371  -3386      0
             3387  -3410      0
             3411  -3424      0
             3425  -3431      0
             3432  -3447      0
             3448  -3461      0
             3462  -3472      0
             3473  -3489      0
             3490  -3503      0
             3504  -3515      0
             3516  -3536      0
             3537  -3558      0
             3559  -3572      0
             3573  -3583      0
             3584  -3603      0
             3604  -3617      0
             3618  -3639      0
             3640  -3663      0
             3664  -3673      0
             3674  -3697      0
             3698  -3714      0
             3715  -3726      0
             3727  -3746      0
             3747  -3757      0
             3758  -3779      0
             3780  -3795      0
             3796  -3811      0
             3812  -3825      0
             3826  -3839      0
             3840  -3858      0
             3859  -3870      0
             3871  -3885      0
             3886  -3897      0
             3898  -3904      0
             3905  -3928      0
             3929  -3939      0
             3940  -3958      0
             3959  -3977      0
             3978  -3988      0
             3989  -4005      0
             4006  -4022      0
             4023  -4041      0
             4042  -4058      0
             4059  -4079      0
             4080  -4091      0
             4092  -4105      0
             4106  -4119      0
             4120  -4141      0
             4142  -4165      0
             4166  -4184      0
             4185  -4195      0
             4196  -4205      0
             4206  -4227      0
             4228  -4237      0
             4238  -4247      0
             4248  -4266      0
             4267  -4276      0
             4277  -4293      0
             4294  -4307      0
             4308  -4327      0
             4328  -4347      0
             4348  -4364      0
             4365  -4376      0
             4377  -4392      0
             4393  -4406      0
             4407  -4428      0
             4429  -4442      0
             4443  -4458      0
             4459  -4472      0
             4473  -4489      0
             4490  -4508      0
             4509  -4532      0
             4533  -4554      0
             4555  -4569      0



 $END
 $FMOBND
       -22        33 6-31G(d)
       -37        47 6-31G(d)
       -51        67 6-31G(d)
       -71        84 6-31G(d)
       -88       106 6-31G(d)
      -110       122 6-31G(d)
      -126       137 6-31G(d)
      -141       159 6-31G(d)
      -163       178 6-31G(d)
      -182       185 6-31G(d)
      -189       200 6-31G(d)
      -204       207 6-31G(d)
      -211       221 6-31G(d)
      -225       242 6-31G(d)
      -246       249 6-31G(d)
      -253       265 6-31G(d)
      -269       281 6-31G(d)
      -285       302 6-31G(d)
      -306       324 6-31G(d)
      -328       334 6-31G(d)
      -338       358 6-31G(d)
      -362       372 6-31G(d)
      -376       394 6-31G(d)
      -398       413 6-31G(d)
      -417       427 6-31G(d)
      -431       434 6-31G(d)
      -438       449 6-31G(d)
      -453       465 6-31G(d)
      -469       481 6-31G(d)
      -485       491 6-31G(d)
      -495       510 6-31G(d)
      -514       532 6-31G(d)
      -536       554 6-31G(d)
      -558       573 6-31G(d)
      -615       625 6-31G(d)
      -629       635 6-31G(d)
      -639       654 6-31G(d)
      -658       678 6-31G(d)
      -682       693 6-31G(d)
      -697       712 6-31G(d)
      -716       723 6-31G(d)
      -727       742 6-31G(d)
      -746       761 6-31G(d)
      -765       783 6-31G(d)
      -787       798 6-31G(d)
      -802       817 6-31G(d)
      -821       831 6-31G(d)
      -835       848 6-31G(d)
      -860       862 6-31G(d)
      -866       876 6-31G(d)
      -880       895 6-31G(d)
      -899       911 6-31G(d)
      -915       933 6-31G(d)
      -937       952 6-31G(d)
      -956       971 6-31G(d)
      -975       983 6-31G(d)
      -987       999 6-31G(d)
     -1003      1018 6-31G(d)
     -1022      1035 6-31G(d)
     -1039      1049 6-31G(d)
     -1053      1064 6-31G(d)
     -1068      1078 6-31G(d)
     -1082      1100 6-31G(d)
     -1104      1119 6-31G(d)
     -1123      1140 6-31G(d)
     -1144      1159 6-31G(d)
     -1163      1175 6-31G(d)
     -1179      1195 6-31G(d)
     -1199      1210 6-31G(d)
     -1214      1230 6-31G(d)
     -1234      1249 6-31G(d)
     -1253      1266 6-31G(d)
     -1270      1283 6-31G(d)
     -1287      1295 6-31G(d)
     -1299      1314 6-31G(d)
     -1318      1336 6-31G(d)
     -1340      1358 6-31G(d)
     -1362      1378 6-31G(d)
     -1382      1395 6-31G(d)
     -1399      1407 6-31G(d)
     -1411      1417 6-31G(d)
     -1421      1428 6-31G(d)
     -1432      1438 6-31G(d)
     -1442      1457 6-31G(d)
     -1461      1471 6-31G(d)
     -1475      1478 6-31G(d)
     -1482      1497 6-31G(d)
     -1509      1511 6-31G(d)
     -1515      1530 6-31G(d)
     -1542      1544 6-31G(d)
     -1548      1563 6-31G(d)
     -1567      1582 6-31G(d)
     -1586      1604 6-31G(d)
     -1608      1615 6-31G(d)
     -1619      1636 6-31G(d)
     -1640      1655 6-31G(d)
     -1659      1675 6-31G(d)
     -1679      1692 6-31G(d)
     -1696      1711 6-31G(d)
     -1715      1730 6-31G(d)
     -1734      1747 6-31G(d)
     -1751      1754 6-31G(d)
     -1758      1773 6-31G(d)
     -1777      1783 6-31G(d)
     -1787      1803 6-31G(d)
     -1807      1814 6-31G(d)
     -1818      1831 6-31G(d)
     -1835      1842 6-31G(d)
     -1846      1859 6-31G(d)
     -1863      1883 6-31G(d)
     -1887      1899 6-31G(d)
     -1903      1918 6-31G(d)
     -1922      1935 6-31G(d)
     -1939      1959 6-31G(d)
     -1963      1971 6-31G(d)
     -1975      1990 6-31G(d)
     -1994      2012 6-31G(d)
     -2024      2026 6-31G(d)
     -2030      2043 6-31G(d)
     -2047      2057 6-31G(d)
     -2061      2076 6-31G(d)
     -2080      2095 6-31G(d)
     -2099      2114 6-31G(d)
     -2118      2128 6-31G(d)
     -2132      2142 6-31G(d)
     -2146      2157 6-31G(d)
     -2161      2164 6-31G(d)
     -2168      2174 6-31G(d)
     -2178      2193 6-31G(d)
     -2197      2215 6-31G(d)
     -2219      2234 6-31G(d)
     -2238      2244 6-31G(d)
     -2248      2256 6-31G(d)
     -2260      2276 6-31G(d)
     -2280      2283 6-31G(d)
     -2287      2302 6-31G(d)
     -2306      2312 6-31G(d)
     -2316      2336 6-31G(d)
     -2340      2346 6-31G(d)
     -2389      2399 6-31G(d)
     -2403      2418 6-31G(d)
     -2422      2442 6-31G(d)
     -2446      2463 6-31G(d)
     -2467      2487 6-31G(d)
     -2491      2497 6-31G(d)
     -2509      2511 6-31G(d)
     -2515      2526 6-31G(d)
     -2530      2545 6-31G(d)
     -2549      2564 6-31G(d)
     -2568      2583 6-31G(d)
     -2587      2590 6-31G(d)
     -2594      2601 6-31G(d)
     -2605      2623 6-31G(d)
     -2627      2644 6-31G(d)
     -2648      2665 6-31G(d)
     -2669      2676 6-31G(d)
     -2680      2690 6-31G(d)
     -2694      2700 6-31G(d)
     -2704      2716 6-31G(d)
     -2720      2728 6-31G(d)
     -2732      2747 6-31G(d)
     -2751      2771 6-31G(d)
     -2775      2782 6-31G(d)
     -2786      2801 6-31G(d)
     -2805      2808 6-31G(d)
     -2812      2819 6-31G(d)
     -2823      2838 6-31G(d)
     -2842      2858 6-31G(d)
     -2862      2868 6-31G(d)
     -2872      2883 6-31G(d)
     -2887      2900 6-31G(d)
     -2904      2916 6-31G(d)
     -2920      2930 6-31G(d)
     -2934      2954 6-31G(d)
     -2958      2978 6-31G(d)
     -2982      2988 6-31G(d)
     -2992      3007 6-31G(d)
     -3011      3027 6-31G(d)
     -3039      3041 6-31G(d)
     -3045      3048 6-31G(d)
     -3052      3060 6-31G(d)
     -3064      3071 6-31G(d)
     -3075      3086 6-31G(d)
     -3090      3105 6-31G(d)
     -3109      3117 6-31G(d)
     -3121      3134 6-31G(d)
     -3138      3153 6-31G(d)
     -3157      3173 6-31G(d)
     -3177      3197 6-31G(d)
     -3201      3216 6-31G(d)
     -3220      3236 6-31G(d)
     -3240      3260 6-31G(d)
     -3264      3274 6-31G(d)
     -3278      3293 6-31G(d)
     -3297      3300 6-31G(d)
     -3304      3314 6-31G(d)
     -3326      3328 6-31G(d)
     -3332      3340 6-31G(d)
     -3344      3355 6-31G(d)
     -3359      3371 6-31G(d)
     -3375      3387 6-31G(d)
     -3391      3411 6-31G(d)
     -3423      3425 6-31G(d)
     -3429      3432 6-31G(d)
     -3436      3448 6-31G(d)
     -3452      3462 6-31G(d)
     -3466      3473 6-31G(d)
     -3477      3490 6-31G(d)
     -3502      3504 6-31G(d)
     -3508      3516 6-31G(d)
     -3520      3537 6-31G(d)
     -3541      3559 6-31G(d)
     -3571      3573 6-31G(d)
     -3577      3584 6-31G(d)
     -3588      3604 6-31G(d)
     -3616      3618 6-31G(d)
     -3622      3640 6-31G(d)
     -3644      3664 6-31G(d)
     -3668      3674 6-31G(d)
     -3678      3698 6-31G(d)
     -3702      3715 6-31G(d)
     -3719      3727 6-31G(d)
     -3731      3747 6-31G(d)
     -3751      3758 6-31G(d)
     -3762      3780 6-31G(d)
     -3784      3796 6-31G(d)
     -3800      3812 6-31G(d)
     -3824      3826 6-31G(d)
     -3838      3840 6-31G(d)
     -3844      3859 6-31G(d)
     -3863      3871 6-31G(d)
     -3875      3886 6-31G(d)
     -3890      3898 6-31G(d)
     -3902      3905 6-31G(d)
     -3909      3929 6-31G(d)
     -3933      3940 6-31G(d)
     -3944      3959 6-31G(d)
     -3963      3978 6-31G(d)
     -3982      3989 6-31G(d)
     -3993      4006 6-31G(d)
     -4010      4023 6-31G(d)
     -4027      4042 6-31G(d)
     -4046      4059 6-31G(d)
     -4063      4080 6-31G(d)
     -4084      4092 6-31G(d)
     -4104      4106 6-31G(d)
     -4110      4120 6-31G(d)
     -4124      4142 6-31G(d)
     -4146      4166 6-31G(d)
     -4170      4185 6-31G(d)
     -4189      4196 6-31G(d)
     -4200      4206 6-31G(d)
     -4210      4228 6-31G(d)
     -4232      4238 6-31G(d)
     -4242      4248 6-31G(d)
     -4252      4267 6-31G(d)
     -4271      4277 6-31G(d)
     -4281      4294 6-31G(d)
     -4306      4308 6-31G(d)
     -4312      4328 6-31G(d)
     -4332      4348 6-31G(d)
     -4352      4365 6-31G(d)
     -4369      4377 6-31G(d)
     -4381      4393 6-31G(d)
     -4397      4407 6-31G(d)
     -4411      4429 6-31G(d)
     -4441      4443 6-31G(d)
     -4447      4459 6-31G(d)
     -4471      4473 6-31G(d)
     -4477      4490 6-31G(d)
     -4494      4509 6-31G(d)
     -4513      4533 6-31G(d)
 $END
 $DATA

c1
H-1 1
C-1 6
N-1 7
O-1 8
S-1 16
 $END
 $FMOHYB
6-31G(d) 15 5
0 1   0.995621   0.028507   0.000000   0.000000   0.000000
     -0.013353   0.000000   0.000000  -0.000001  -0.002076
     -0.002076  -0.002076   0.000000   0.000000   0.000000
0 1   0.097077  -0.179454   0.178051   0.308393   0.125888
     -0.181305   0.093381   0.161741   0.066029   0.000102
     -0.020671   0.005300  -0.020773  -0.008476  -0.014681
0 1   0.097077  -0.179454  -0.356101  -0.000000   0.125888
     -0.181304  -0.186762  -0.000000   0.066030  -0.031058
      0.010489   0.005300   0.000000   0.016952   0.000000
0 1   0.097077  -0.179454   0.178051  -0.308393   0.125888
     -0.181304   0.093381  -0.161741   0.066029   0.000102
     -0.020672   0.005300   0.020773  -0.008476   0.014681
1 0  -0.097061   0.179413   0.000000   0.000000   0.377708
      0.181288   0.000000   0.000000   0.198114  -0.010489
     -0.010489   0.036248  -0.000000  -0.000000  -0.000000
 $END
 $FMOXYZ
      1      N        11.032000     6.593000    75.252000
      2      H        11.242000     7.388000    75.847000
      3      H        10.414000     6.018000    75.820000
      4      H        10.549000     6.919000    74.423000
      5      C        12.268000     5.850000    74.904000
      6      H        11.977000     4.840000    74.619000
      7      C        12.920000     6.511000    73.681000
      8      H        12.174000     6.542000    72.893000
      9      H        13.209000     7.534000    73.928000
     10      C        14.133000     5.771000    73.118000
     11      H        14.497000     6.338000    72.261000
     12      H        14.944000     5.735000    73.843000
     13      S        13.756000     4.095000    72.570000
     14      C        15.337000     3.692000    71.796000
     15      H        16.051000     3.418000    72.568000
     16      H        15.203000     2.860000    71.110000
     17      H        15.711000     4.552000    71.243000
     18      C        13.233000     5.717000    76.095000
     19      O        14.301000     6.337000    76.126000
     20      N        12.868000     4.912000    77.096000
     21      H        11.933000     4.508000    77.042000
     22      C        13.375000     5.098000    78.472000
     23      H        13.625000     6.154000    78.604000
     24      C        12.268000     4.744000    79.497000
     25      H        11.820000     3.792000    79.211000
     26      H        12.721000     4.615000    80.480000
     27      C        11.135000     5.776000    79.640000
     28      H        10.316000     5.339000    80.213000
     29      H        11.495000     6.639000    80.207000
     30      C        10.650000     6.227000    78.264000
     31      O        10.143000     5.378000    77.492000
     32      O        11.071000     7.314000    77.811000
     33      C        14.649000     4.302000    78.801000
     34      O        15.443000     4.751000    79.633000
     35      N        14.877000     3.152000    78.155000
     36      H        14.135000     2.807000    77.562000
     37      C        15.933000     2.187000    78.521000
     38      H        15.854000     1.998000    79.594000
     39      C        15.676000     0.849000    77.796000
     40      H        15.710000     1.001000    76.718000
     41      H        16.467000     0.144000    78.058000
     42      C        14.349000     0.195000    78.149000
     43      O        13.547000     0.720000    78.899000
     44      N        14.065000    -0.958000    77.596000
     45      H        13.185000    -1.373000    77.856000
     46      H        14.708000    -1.414000    76.975000
     47      C        17.376000     2.673000    78.264000
     48      O        18.328000     2.002000    78.653000
     49      N        17.554000     3.833000    77.627000
     50      H        16.725000     4.358000    77.400000
     51      C        18.843000     4.312000    77.121000
     52      H        19.635000     3.626000    77.426000
     53      C        18.806000     4.293000    75.587000
     54      H        17.971000     4.901000    75.234000
     55      H        19.719000     4.749000    75.213000
     56      C        18.694000     2.902000    74.995000
     57      C        17.434000     2.374000    74.655000
     58      H        16.537000     2.952000    74.821000
     59      C        17.336000     1.088000    74.097000
     60      H        16.371000     0.678000    73.831000
     61      C        18.495000     0.323000    73.884000
     62      H        18.422000    -0.669000    73.456000
     63      C        19.753000     0.842000    74.234000
     64      H        20.641000     0.244000    74.070000
     65      C        19.854000     2.129000    74.791000
     66      H        20.827000     2.519000    75.056000
     67      C        19.202000     5.699000    77.670000
     68      O        18.669000     6.719000    77.213000
     69      N        20.142000     5.739000    78.621000
     70      H        20.605000     4.861000    78.837000
     71      C        20.859000     6.970000    78.987000
     72      H        20.132000     7.764000    79.163000
     73      C        21.659000     6.770000    80.289000
     74      H        22.203000     7.695000    80.489000
     75      H        20.969000     6.610000    81.119000
     76      C        22.655000     5.598000    80.242000
     77      H        22.149000     4.674000    80.522000
     78      H        23.033000     5.488000    79.229000
     79      C        23.875000     5.823000    81.125000
     80      O        24.690000     6.686000    80.868000
     81      N        24.077000     5.045000    82.166000
     82      H        24.870000     5.282000    82.739000
     83      H        23.438000     4.311000    82.411000
     84      C        21.750000     7.412000    77.812000
     85      O        22.151000     6.581000    76.997000
     86      N        22.024000     8.713000    77.679000
     87      H        21.798000     9.342000    78.439000
     88      C        22.639000     9.313000    76.479000
     89      H        23.009000     8.523000    75.827000
     90      C        21.604000    10.129000    75.673000
     91      H        21.437000    11.089000    76.166000
     92      H        22.010000    10.321000    74.679000
     93      C        20.254000     9.396000    75.550000
     94      H        20.433000     8.368000    75.230000
     95      H        19.784000     9.381000    76.534000
     96      C        19.270000    10.045000    74.567000
     97      H        19.351000    11.132000    74.639000
     98      H        19.534000     9.756000    73.548000
     99      C        17.810000     9.652000    74.873000
    100      H        17.507000    10.172000    75.787000
    101      H        17.177000    10.026000    74.062000
    102      N        17.609000     8.187000    75.053000
    103      H        18.140000     7.842000    75.854000
    104      H        16.638000     7.971000    75.245000
    105      H        17.911000     7.672000    74.238000
    106      C        23.848000    10.144000    76.902000
    107      O        23.747000    10.870000    77.885000
    108      N        24.966000     9.996000    76.193000
    109      H        24.927000     9.407000    75.369000
    110      C        26.293000    10.484000    76.622000
    111      H        26.176000    11.002000    77.575000
    112      C        27.257000     9.306000    76.918000
    113      H        26.996000     8.923000    77.906000